SAT
173 91 -43 -5 -114 -164 141 -35 33 157 99 145 -10 13 94 -131 -103 -147 117 122 -132 69 115 4 65 75 -21 -62 -25 78 53 -28 -49 -85 159 87 58 71 128 59 140 80 74 158 -52 29 -110 -38 -89 -56 -12 -20 -66 -167 -31 169 162 76 -16 107 100 17 108 -79 -163 -60 -154 111 18 -106 -55 118 -1 32 -51 166 11 81 146 -134 6 95 -160 137 -149 -138 -63 -27 -165 125 84 -121 -68 -93 72 152 -2 -170 -175 123 -135 -54 73 -46 83 -77 116 97 57 -64 113 -142 90 -37 -88 -130 42 151 -104 -45 -61 171 -82 -119 109 -144 -102 -19 48 -101 50 153 23 22 156 -47 -86 -9 96 34 133 143 -15 -174 172 105 155 -26 124 98 70 -92 -7 -3 150 39 -14 40 -126 139 41 -148 67 127 -36 -8 120 136 -112 -168 -161 24 -30 -129 -44 0
